#
# MgCO3 in primitive cell. SZ. Nose-Parrinello-Rahman.
#
SystemName	MgCo3 R-3c -- SZ, 50 R -- NPR at 10 Gpa, 500K
SystemLabel	md_npr
NumberOfSpecies		1
NumberOfAtoms	       108
%block ChemicalSpeciesLabel
1  6 C
%endblock ChemicalSpeciesLabel

PAO.BasisSize		DZP
PAO.EnergyShift		65 meV

# Rhombohedral primitive cell
# (HEX 3-fold cell had A=4.635 and C=15.023, so alpha=48.179 degrees
#  and a=5.67783 Ang)

LatticeConstant 1.0 Ang
%block LatticeParameters
7.804931 7.804931 22.075680 90.00000 90.00000 90.00000
%endblock LatticeParameters   

AtomicCoordinatesFormat    Fractional

%block AtomicCoordinatesAndAtomicSpecies
0.000000	0.333333	0.645833	1
0.000000	0.666667	0.645833	1
0.000000	0.000000	0.645833	1
0.333333	0.333333	0.645833	1
0.333333	0.666667	0.645833	1
0.333333	0.000000	0.645833	1
0.666667	0.333333	0.645833	1
0.666667	0.666667	0.645833	1
0.666667	0.000000	0.645833	1
0.166667	0.166667	0.729167	1
0.166667	0.500000	0.729167	1
0.166667	0.833333	0.729167	1
0.500000	0.166667	0.729167	1
0.500000	0.500000	0.729167	1
0.500000	0.833333	0.729167	1
0.833333	0.166667	0.729167	1
0.833333	0.500000	0.729167	1
0.833333	0.833333	0.729167	1
0.000000	0.166667	0.687500	1
0.000000	0.500000	0.687500	1
0.000000	0.833333	0.687500	1
0.333333	0.166667	0.687500	1
0.333333	0.500000	0.687500	1
0.333333	0.833333	0.687500	1
0.666667	0.166667	0.687500	1
0.666667	0.500000	0.687500	1
0.666667	0.833333	0.687500	1
0.166667	0.333333	0.604167	1
0.166667	0.666667	0.604167	1
0.166667	0.000000	0.604167	1
0.500000	0.333333	0.604167	1
0.500000	0.666667	0.604167	1
0.500000	0.000000	0.604167	1
0.833333	0.333333	0.604167	1
0.833333	0.666667	0.604167	1
0.833333	0.000000	0.604167	1
0.000000	0.333333	0.479167	1
0.000000	0.666667	0.479167	1
0.000000	0.000000	0.479167	1
0.333333	0.333333	0.479167	1
0.333333	0.666667	0.479167	1
0.333333	0.000000	0.479167	1
0.666667	0.333333	0.479167	1
0.666667	0.666667	0.479167	1
0.666667	0.000000	0.479167	1
0.166667	0.166667	0.562500	1
0.166667	0.500000	0.562500	1
0.166667	0.833333	0.562500	1
0.500000	0.166667	0.562500	1
0.500000	0.500000	0.562500	1
0.500000	0.833333	0.562500	1
0.833333	0.166667	0.562500	1
0.833333	0.500000	0.562500	1
0.833333	0.833333	0.562500	1
0.000000	0.166667	0.520833	1
0.000000	0.500000	0.520833	1
0.000000	0.833333	0.520833	1
0.333333	0.166667	0.520833	1
0.333333	0.500000	0.520833	1
0.333333	0.833333	0.520833	1
0.666667	0.166667	0.520833	1
0.666667	0.500000	0.520833	1
0.666667	0.833333	0.520833	1
0.166667	0.333333	0.437500	1
0.166667	0.666667	0.437500	1
0.166667	0.000000	0.437500	1
0.500000	0.333333	0.437500	1
0.500000	0.666667	0.437500	1
0.500000	0.000000	0.437500	1
0.833333	0.333333	0.437500	1
0.833333	0.666667	0.437500	1
0.833333	0.000000	0.437500	1
0.000000	0.333333	0.312500	1
0.000000	0.666667	0.312500	1
0.000000	0.000000	0.312500	1
0.333333	0.333333	0.312500	1
0.333333	0.666667	0.312500	1
0.333333	0.000000	0.312500	1
0.666667	0.333333	0.312500	1
0.666667	0.666667	0.312500	1
0.666667	0.000000	0.312500	1
0.166667	0.166667	0.395833	1
0.166667	0.500000	0.395833	1
0.166667	0.833333	0.395833	1
0.500000	0.166667	0.395833	1
0.500000	0.500000	0.395833	1
0.500000	0.833333	0.395833	1
0.833333	0.166667	0.395833	1
0.833333	0.500000	0.395833	1
0.833333	0.833333	0.395833	1
0.000000	0.166667	0.354167	1
0.000000	0.500000	0.354167	1
0.000000	0.833333	0.354167	1
0.333333	0.166667	0.354167	1
0.333333	0.500000	0.354167	1
0.333333	0.833333	0.354167	1
0.666667	0.166667	0.354167	1
0.666667	0.500000	0.354167	1
0.666667	0.833333	0.354167	1
0.166667	0.333333	0.270833	1
0.166667	0.666667	0.270833	1
0.166667	0.000000	0.270833	1
0.500000	0.333333	0.270833	1
0.500000	0.666667	0.270833	1
0.500000	0.000000	0.270833	1
0.833333	0.333333	0.270833	1
0.833333	0.666667	0.270833	1
0.833333	0.000000	0.270833	1
%endblock AtomicCoordinatesAndAtomicSpecies

#%block GeometryConstraints
# stress 3 4 5
# position  12 0.0  0.0  1.0   
#%endblock GeometryConstraints

MeshCutoff             200 Ry
DM.NumberBroyden       4
DM.UseSaveDM           T
DM.MixingWeight		0.05
DM.Tolerance		1.d-4
DM.NumberPulay		8
MaxSCFIterations		400

WriteCoorStep      .true.
WriteForces        .true.
WriteMDHistory     .true.
WriteCoorXmol		yes
UseSaveData           .true.
SaveRho                 .true.       # Write valence pseudocharge at the mesh
MD.UseSaveXV       T

MD.TypeOfRun         NoseParrinelloRahman
MD.Target-pressure   0.000101325 GPa
MD.Target-temperature   1023 K
MD.Initial-temperature   1023 K
MD.Initial.Time.Step      1
MD.Final.Time.Step        10000
MD.Length.Time.Step       0.3 fs

