#
# MgCO3 in primitive cell. SZ. Nose-Parrinello-Rahman.
#
SystemName	MgCo3 R-3c -- SZ, 50 R -- NPR at 10 Gpa, 500K
SystemLabel	md_npr
NumberOfSpecies		2
NumberOfAtoms	       117
%block ChemicalSpeciesLabel
1  6 C
2  1 H
%endblock ChemicalSpeciesLabel

PAO.BasisSize		DZP
PAO.EnergyShift		65 meV

# Rhombohedral primitive cell
# (HEX 3-fold cell had A=4.635 and C=15.023, so alpha=48.179 degrees
#  and a=5.67783 Ang)

LatticeConstant 1.0 Ang
%block LatticeParameters
7.804931 7.804931 22.075680 90.00000 90.00000 90.00000
%endblock LatticeParameters   

AtomicCoordinatesFormat    Fractional

%block AtomicCoordinatesAndAtomicSpecies
0.000000000	0.333333000	0.645833000	1
0.000000000	0.666667000	0.645833000	1
0.000000000	0.000000000	0.645833000	1
0.333333000	0.333333000	0.645833000	1
0.333333000	0.666667000	0.645833000	1
0.333333000	0.000000000	0.645833000	1
0.666667000	0.333333000	0.645833000	1
0.666667000	0.666667000	0.645833000	1
0.666667000	0.000000000	0.645833000	1
0.166667000	0.166667000	0.729167000	1
0.166667000	0.500000000	0.729167000	1
0.166667000	0.833333000	0.729167000	1
0.500000000	0.166667000	0.729167000	1
0.500000000	0.500000000	0.729167000	1
0.500000000	0.833333000	0.729167000	1
0.833333000	0.166667000	0.729167000	1
0.833333000	0.500000000	0.729167000	1
0.833333000	0.833333000	0.729167000	1
0.000000000	0.166667000	0.687500000	1
0.000000000	0.500000000	0.687500000	1
0.000000000	0.833333000	0.687500000	1
0.333333000	0.166667000	0.687500000	1
0.333333000	0.500000000	0.687500000	1
0.333333000	0.833333000	0.687500000	1
0.666667000	0.166667000	0.687500000	1
0.666667000	0.500000000	0.687500000	1
0.666667000	0.833333000	0.687500000	1
0.166667000	0.333333000	0.604167000	1
0.166667000	0.666667000	0.604167000	1
0.166667000	0.000000000	0.604167000	1
0.500000000	0.333333000	0.604167000	1
0.500000000	0.666667000	0.604167000	1
0.500000000	0.000000000	0.604167000	1
0.833333000	0.333333000	0.604167000	1
0.833333000	0.666667000	0.604167000	1
0.833333000	0.000000000	0.604167000	1
0.000000000	0.333333000	0.479167000	1
0.000000000	0.666667000	0.479167000	1
0.000000000	0.000000000	0.479167000	1
0.333333000	0.333333000	0.479167000	1
0.333333000	0.666667000	0.479167000	1
0.333333000	0.000000000	0.479167000	1
0.666667000	0.333333000	0.479167000	1
0.666667000	0.666667000	0.479167000	1
0.666667000	0.000000000	0.479167000	1
0.166667000	0.166667000	0.562500000	1
0.166667000	0.500000000	0.562500000	1
0.166667000	0.833333000	0.562500000	1
0.500000000	0.166667000	0.562500000	1
0.500000000	0.500000000	0.562500000	1
0.500000000	0.833333000	0.562500000	1
0.833333000	0.166667000	0.562500000	1
0.833333000	0.500000000	0.562500000	1
0.833333000	0.833333000	0.562500000	1
0.000000000	0.166667000	0.520833000	1
0.000000000	0.500000000	0.520833000	1
0.000000000	0.833333000	0.520833000	1
0.333333000	0.166667000	0.520833000	1
0.333333000	0.500000000	0.520833000	1
0.333333000	0.833333000	0.520833000	1
0.666667000	0.166667000	0.520833000	1
0.666667000	0.500000000	0.520833000	1
0.666667000	0.833333000	0.520833000	1
0.166667000	0.333333000	0.437500000	1
0.166667000	0.666667000	0.437500000	1
0.166667000	0.000000000	0.437500000	1
0.500000000	0.333333000	0.437500000	1
0.500000000	0.666667000	0.437500000	1
0.500000000	0.000000000	0.437500000	1
0.833333000	0.333333000	0.437500000	1
0.833333000	0.666667000	0.437500000	1
0.833333000	0.000000000	0.437500000	1
0.000000000	0.333333000	0.312500000	1
0.000000000	0.666667000	0.312500000	1
0.000000000	0.000000000	0.312500000	1
0.333333000	0.333333000	0.312500000	1
0.333333000	0.666667000	0.312500000	1
0.333333000	0.000000000	0.312500000	1
0.666667000	0.333333000	0.312500000	1
0.666667000	0.666667000	0.312500000	1
0.666667000	0.000000000	0.312500000	1
0.166667000	0.166667000	0.395833000	1
0.166667000	0.500000000	0.395833000	1
0.166667000	0.833333000	0.395833000	1
0.500000000	0.166667000	0.395833000	1
0.500000000	0.500000000	0.395833000	1
0.500000000	0.833333000	0.395833000	1
0.833333000	0.166667000	0.395833000	1
0.833333000	0.500000000	0.395833000	1
0.833333000	0.833333000	0.395833000	1
0.000000000	0.166667000	0.354167000	1
0.000000000	0.500000000	0.354167000	1
0.000000000	0.833333000	0.354167000	1
0.333333000	0.166667000	0.354167000	1
0.333333000	0.500000000	0.354167000	1
0.333333000	0.833333000	0.354167000	1
0.666667000	0.166667000	0.354167000	1
0.666667000	0.500000000	0.354167000	1
0.666667000	0.833333000	0.354167000	1
0.166667000	0.333333000	0.270833000	1
0.166667000	0.666667000	0.270833000	1
0.166667000	0.000000000	0.270833000	1
0.500000000	0.333333000	0.270833000	1
0.500000000	0.666667000	0.270833000	1
0.500000000	0.000000000	0.270833000	1
0.833333000	0.333333000	0.270833000	1
0.833333000	0.666667000	0.270833000	1
0.833333000	0.000000000	0.270833000	1
0.166667000	0.333333000	0.221454000	2
0.166667000	0.666667000	0.221454000	2
0.166667000	0.000000000	0.221454000	2
0.500000000	0.333333000	0.221454000	2
0.500000000	0.666667000	0.221454000	2
0.500000000	0.000000000	0.221454000	2
0.833333000	0.333333000	0.221454000	2
0.833333000	0.666667000	0.221454000	2
0.833333000	0.000000000	0.221454000	2
%endblock AtomicCoordinatesAndAtomicSpecies

#%block GeometryConstraints
# stress 3 4 5
# position  12 0.0  0.0  1.0   
#%endblock GeometryConstraints

MeshCutoff             200 Ry
DM.NumberBroyden       4
DM.UseSaveDM           T
DM.MixingWeight		0.05
DM.Tolerance		1.d-4
DM.NumberPulay		8
MaxSCFIterations		400

WriteCoorStep      .true.
WriteForces        .true.
WriteMDHistory     .true.
WriteCoorXmol		yes
UseSaveData           .true.
SaveRho                 .true.       # Write valence pseudocharge at the mesh
MD.UseSaveXV       T

MD.TypeOfRun         NoseParrinelloRahman
MD.Target-pressure   0.000101325 GPa
MD.Target-temperature   1023 K #as in Lammps paper
MD.Initial-temperature   1023 K #as in Lammps paper
MD.Initial.Time.Step      1
MD.Final.Time.Step        30000
MD.Length.Time.Step       0.3 fs

