#
# MgCO3 in primitive cell. SZ. Nose-Parrinello-Rahman.
#
SystemName	MgCo3 R-3c -- SZ, 50 R -- NPR at 10 Gpa, 500K
SystemLabel	md_npr
NumberOfSpecies		2
NumberOfAtoms	       117
%block ChemicalSpeciesLabel
1  6 C
2  1 H
%endblock ChemicalSpeciesLabel

PAO.BasisSize		DZP
PAO.EnergyShift		65 meV

# Rhombohedral primitive cell
# (HEX 3-fold cell had A=4.635 and C=15.023, so alpha=48.179 degrees
#  and a=5.67783 Ang)

LatticeConstant 1.0 Ang
%block LatticeParameters
7.80493152 7.80493152 22.07568000 90.00000 90.00000 90.00000
%endblock LatticeParameters   

AtomicCoordinatesFormat    Fractional

%block AtomicCoordinatesAndAtomicSpecies
0.0000000000	0.3333330000	0.6458330000	1
0.0000000000	0.6666670000	0.6458330000	1
0.0000000000	0.0000000000	0.6458330000	1
0.3333330000	0.3333330000	0.6458330000	1
0.3333330000	0.6666670000	0.6458330000	1
0.3333330000	0.0000000000	0.6458330000	1
0.6666670000	0.3333330000	0.6458330000	1
0.6666670000	0.6666670000	0.6458330000	1
0.6666670000	0.0000000000	0.6458330000	1
0.1666670000	0.1666670000	0.7291670000	1
0.1666670000	0.5000000000	0.7291670000	1
0.1666670000	0.8333330000	0.7291670000	1
0.5000000000	0.1666670000	0.7291670000	1
0.5000000000	0.5000000000	0.7291670000	1
0.5000000000	0.8333330000	0.7291670000	1
0.8333330000	0.1666670000	0.7291670000	1
0.8333330000	0.5000000000	0.7291670000	1
0.8333330000	0.8333330000	0.7291670000	1
0.0000000000	0.1666670000	0.6875000000	1
0.0000000000	0.5000000000	0.6875000000	1
0.0000000000	0.8333330000	0.6875000000	1
0.3333330000	0.1666670000	0.6875000000	1
0.3333330000	0.5000000000	0.6875000000	1
0.3333330000	0.8333330000	0.6875000000	1
0.6666670000	0.1666670000	0.6875000000	1
0.6666670000	0.5000000000	0.6875000000	1
0.6666670000	0.8333330000	0.6875000000	1
0.1666670000	0.3333330000	0.6041670000	1
0.1666670000	0.6666670000	0.6041670000	1
0.1666670000	0.0000000000	0.6041670000	1
0.5000000000	0.3333330000	0.6041670000	1
0.5000000000	0.6666670000	0.6041670000	1
0.5000000000	0.0000000000	0.6041670000	1
0.8333330000	0.3333330000	0.6041670000	1
0.8333330000	0.6666670000	0.6041670000	1
0.8333330000	0.0000000000	0.6041670000	1
0.0000000000	0.3333330000	0.4791670000	1
0.0000000000	0.6666670000	0.4791670000	1
0.0000000000	0.0000000000	0.4791670000	1
0.3333330000	0.3333330000	0.4791670000	1
0.3333330000	0.6666670000	0.4791670000	1
0.3333330000	0.0000000000	0.4791670000	1
0.6666670000	0.3333330000	0.4791670000	1
0.6666670000	0.6666670000	0.4791670000	1
0.6666670000	0.0000000000	0.4791670000	1
0.1666670000	0.1666670000	0.5625000000	1
0.1666670000	0.5000000000	0.5625000000	1
0.1666670000	0.8333330000	0.5625000000	1
0.5000000000	0.1666670000	0.5625000000	1
0.5000000000	0.5000000000	0.5625000000	1
0.5000000000	0.8333330000	0.5625000000	1
0.8333330000	0.1666670000	0.5625000000	1
0.8333330000	0.5000000000	0.5625000000	1
0.8333330000	0.8333330000	0.5625000000	1
0.0000000000	0.1666670000	0.5208330000	1
0.0000000000	0.5000000000	0.5208330000	1
0.0000000000	0.8333330000	0.5208330000	1
0.3333330000	0.1666670000	0.5208330000	1
0.3333330000	0.5000000000	0.5208330000	1
0.3333330000	0.8333330000	0.5208330000	1
0.6666670000	0.1666670000	0.5208330000	1
0.6666670000	0.5000000000	0.5208330000	1
0.6666670000	0.8333330000	0.5208330000	1
0.1666670000	0.3333330000	0.4375000000	1
0.1666670000	0.6666670000	0.4375000000	1
0.1666670000	0.0000000000	0.4375000000	1
0.5000000000	0.3333330000	0.4375000000	1
0.5000000000	0.6666670000	0.4375000000	1
0.5000000000	0.0000000000	0.4375000000	1
0.8333330000	0.3333330000	0.4375000000	1
0.8333330000	0.6666670000	0.4375000000	1
0.8333330000	0.0000000000	0.4375000000	1
0.0000000000	0.3333330000	0.3125000000	1
0.0000000000	0.6666670000	0.3125000000	1
0.0000000000	0.0000000000	0.3125000000	1
0.3333330000	0.3333330000	0.3125000000	1
0.3333330000	0.6666670000	0.3125000000	1
0.3333330000	0.0000000000	0.3125000000	1
0.6666670000	0.3333330000	0.3125000000	1
0.6666670000	0.6666670000	0.3125000000	1
0.6666670000	0.0000000000	0.3125000000	1
0.1666670000	0.1666670000	0.3958330000	1
0.1666670000	0.5000000000	0.3958330000	1
0.1666670000	0.8333330000	0.3958330000	1
0.5000000000	0.1666670000	0.3958330000	1
0.5000000000	0.5000000000	0.3958330000	1
0.5000000000	0.8333330000	0.3958330000	1
0.8333330000	0.1666670000	0.3958330000	1
0.8333330000	0.5000000000	0.3958330000	1
0.8333330000	0.8333330000	0.3958330000	1
0.0000000000	0.1666670000	0.3541670000	1
0.0000000000	0.5000000000	0.3541670000	1
0.0000000000	0.8333330000	0.3541670000	1
0.3333330000	0.1666670000	0.3541670000	1
0.3333330000	0.5000000000	0.3541670000	1
0.3333330000	0.8333330000	0.3541670000	1
0.6666670000	0.1666670000	0.3541670000	1
0.6666670000	0.5000000000	0.3541670000	1
0.6666670000	0.8333330000	0.3541670000	1
0.1666670000	0.3333330000	0.2708330000	1
0.1666670000	0.6666670000	0.2708330000	1
0.1666670000	0.0000000000	0.2708330000	1
0.5000000000	0.3333330000	0.2708330000	1
0.5000000000	0.6666670000	0.2708330000	1
0.5000000000	0.0000000000	0.2708330000	1
0.8333330000	0.3333330000	0.2708330000	1
0.8333330000	0.6666670000	0.2708330000	1
0.8333330000	0.0000000000	0.2708330000	1
0.1666670000	0.3333330000	0.2214570000	2
0.1666670000	0.6666670000	0.2214570000	2
0.1666670000	0.0000000000	0.2214570000	2
0.5000000000	0.3333330000	0.2214570000	2
0.5000000000	0.6666670000	0.2214570000	2
0.5000000000	0.0000000000	0.2214570000	2
0.8333330000	0.3333330000	0.2214570000	2
0.8333330000	0.6666670000	0.2214570000	2
0.8333330000	0.0000000000	0.2214570000	2
%endblock AtomicCoordinatesAndAtomicSpecies

#%block GeometryConstraints
# stress 3 4 5
# position  12 0.0  0.0  1.0   
#%endblock GeometryConstraints

MeshCutoff             200 Ry
DM.NumberBroyden       4
DM.UseSaveDM           T
DM.MixingWeight		0.05
DM.Tolerance		1.d-4
DM.NumberPulay		8
MaxSCFIterations		400

WriteCoorStep      .true.
WriteForces        .true.
WriteMDHistory     .true.
WriteCoorXmol		yes
UseSaveData           .true.
SaveRho                 .true.       # Write valence pseudocharge at the mesh
MD.UseSaveXV       T

MD.TypeOfRun         NoseParrinelloRahman
MD.Target-pressure   0.000101325 GPa
MD.Target-temperature   400 K
MD.Initial-temperature   1000 K
MD.Initial.Time.Step      1
MD.Final.Time.Step        3000
MD.Length.Time.Step       0.2 fs

